[VALIDATOR STDOUT]
Checking plan: /home/jfan5/Safety-gen/runs/benchmark/optic/grippers_20260205_114054/grippers/optic_results/grippers-n3-r33-o31-s31001.plan
Plan executed successfully - checking goal
Plan valid
Final value: 124 

Successful plans:
Value: 124
 /home/jfan5/Safety-gen/runs/benchmark/optic/grippers_20260205_114054/grippers/optic_results/grippers-n3-r33-o31-s31001.plan 124
